data/kcolor/4-15-0.5/id=1726_n=15_p=0.5_k=4.cnf
p cnf 60 159
1 2 3 4 0
5 6 7 8 0
9 10 11 12 0
13 14 15 16 0
17 18 19 20 0
21 22 23 24 0
25 26 27 28 0
29 30 31 32 0
33 34 35 36 0
37 38 39 40 0
41 42 43 44 0
45 46 47 48 0
49 50 51 52 0
53 54 55 56 0
57 58 59 60 0
-1 -21 0
-2 -22 0
-3 -23 0
-4 -24 0
-1 -49 0
-2 -50 0
-3 -51 0
-4 -52 0
-5 -13 0
-6 -14 0
-7 -15 0
-8 -16 0
-5 -21 0
-6 -22 0
-7 -23 0
-8 -24 0
-5 -57 0
-6 -58 0
-7 -59 0
-8 -60 0
-9 -13 0
-10 -14 0
-11 -15 0
-12 -16 0
-9 -17 0
-10 -18 0
-11 -19 0
-12 -20 0
-9 -21 0
-10 -22 0
-11 -23 0
-12 -24 0
-9 -29 0
-10 -30 0
-11 -31 0
-12 -32 0
-9 -49 0
-10 -50 0
-11 -51 0
-12 -52 0
-13 -25 0
-14 -26 0
-15 -27 0
-16 -28 0
-13 -45 0
-14 -46 0
-15 -47 0
-16 -48 0
-13 -57 0
-14 -58 0
-15 -59 0
-16 -60 0
-17 -21 0
-18 -22 0
-19 -23 0
-20 -24 0
-17 -25 0
-18 -26 0
-19 -27 0
-20 -28 0
-17 -29 0
-18 -30 0
-19 -31 0
-20 -32 0
-17 -37 0
-18 -38 0
-19 -39 0
-20 -40 0
-17 -41 0
-18 -42 0
-19 -43 0
-20 -44 0
-17 -49 0
-18 -50 0
-19 -51 0
-20 -52 0
-21 -45 0
-22 -46 0
-23 -47 0
-24 -48 0
-21 -53 0
-22 -54 0
-23 -55 0
-24 -56 0
-25 -29 0
-26 -30 0
-27 -31 0
-28 -32 0
-25 -37 0
-26 -38 0
-27 -39 0
-28 -40 0
-25 -41 0
-26 -42 0
-27 -43 0
-28 -44 0
-25 -45 0
-26 -46 0
-27 -47 0
-28 -48 0
-25 -53 0
-26 -54 0
-27 -55 0
-28 -56 0
-33 -53 0
-34 -54 0
-35 -55 0
-36 -56 0
-37 -45 0
-38 -46 0
-39 -47 0
-40 -48 0
-37 -49 0
-38 -50 0
-39 -51 0
-40 -52 0
-37 -53 0
-38 -54 0
-39 -55 0
-40 -56 0
-41 -45 0
-42 -46 0
-43 -47 0
-44 -48 0
-41 -49 0
-42 -50 0
-43 -51 0
-44 -52 0
-41 -53 0
-42 -54 0
-43 -55 0
-44 -56 0
-41 -57 0
-42 -58 0
-43 -59 0
-44 -60 0
-45 -53 0
-46 -54 0
-47 -55 0
-48 -56 0
-49 -57 0
-50 -58 0
-51 -59 0
-52 -60 0
