data/kcolor/4-15-0.5/id=1726_n=15_p=0.5_k=4.wcnf
p wcnf 60 159 1000
1000 1 2 3 4 0
50 5 6 7 8 0
1000 9 10 11 12 0
1000 13 14 15 16 0
1000 17 18 19 20 0
1000 21 22 23 24 0
1000 25 26 27 28 0
23 29 30 31 32 0
1000 33 34 35 36 0
35 37 38 39 40 0
1000 41 42 43 44 0
1000 45 46 47 48 0
69 49 50 51 52 0
1000 53 54 55 56 0
1000 57 58 59 60 0
1000 -1 -21 0
1000 -2 -22 0
1000 -3 -23 0
1000 -4 -24 0
1000 -1 -49 0
1000 -2 -50 0
55 -3 -51 0
1000 -4 -52 0
1000 -5 -13 0
1000 -6 -14 0
1000 -7 -15 0
1000 -8 -16 0
1000 -5 -21 0
1000 -6 -22 0
1000 -7 -23 0
65 -8 -24 0
1000 -5 -57 0
1000 -6 -58 0
61 -7 -59 0
69 -8 -60 0
1000 -9 -13 0
1000 -10 -14 0
1000 -11 -15 0
1000 -12 -16 0
1000 -9 -17 0
1000 -10 -18 0
1000 -11 -19 0
1000 -12 -20 0
1000 -9 -21 0
1000 -10 -22 0
1000 -11 -23 0
76 -12 -24 0
24 -9 -29 0
1000 -10 -30 0
79 -11 -31 0
11 -12 -32 0
1000 -9 -49 0
95 -10 -50 0
1000 -11 -51 0
1000 -12 -52 0
8 -13 -25 0
1000 -14 -26 0
1000 -15 -27 0
39 -16 -28 0
1000 -13 -45 0
22 -14 -46 0
54 -15 -47 0
1000 -16 -48 0
1000 -13 -57 0
1000 -14 -58 0
29 -15 -59 0
13 -16 -60 0
1000 -17 -21 0
1000 -18 -22 0
29 -19 -23 0
36 -20 -24 0
1000 -17 -25 0
1000 -18 -26 0
1000 -19 -27 0
1000 -20 -28 0
1000 -17 -29 0
1000 -18 -30 0
1000 -19 -31 0
1000 -20 -32 0
1000 -17 -37 0
77 -18 -38 0
1000 -19 -39 0
54 -20 -40 0
1000 -17 -41 0
1000 -18 -42 0
1000 -19 -43 0
1000 -20 -44 0
1000 -17 -49 0
1000 -18 -50 0
1000 -19 -51 0
1000 -20 -52 0
1000 -21 -45 0
63 -22 -46 0
1000 -23 -47 0
4 -24 -48 0
1000 -21 -53 0
84 -22 -54 0
1000 -23 -55 0
1000 -24 -56 0
1000 -25 -29 0
1000 -26 -30 0
1000 -27 -31 0
1000 -28 -32 0
17 -25 -37 0
77 -26 -38 0
85 -27 -39 0
1000 -28 -40 0
1000 -25 -41 0
37 -26 -42 0
1000 -27 -43 0
1000 -28 -44 0
1000 -25 -45 0
81 -26 -46 0
1000 -27 -47 0
99 -28 -48 0
1000 -25 -53 0
1000 -26 -54 0
2 -27 -55 0
98 -28 -56 0
1000 -33 -53 0
63 -34 -54 0
1000 -35 -55 0
1000 -36 -56 0
1000 -37 -45 0
1000 -38 -46 0
24 -39 -47 0
1000 -40 -48 0
1000 -37 -49 0
1000 -38 -50 0
83 -39 -51 0
1000 -40 -52 0
47 -37 -53 0
1000 -38 -54 0
1000 -39 -55 0
95 -40 -56 0
1000 -41 -45 0
1000 -42 -46 0
1000 -43 -47 0
1000 -44 -48 0
65 -41 -49 0
54 -42 -50 0
1000 -43 -51 0
66 -44 -52 0
1000 -41 -53 0
64 -42 -54 0
91 -43 -55 0
1000 -44 -56 0
51 -41 -57 0
49 -42 -58 0
1000 -43 -59 0
1000 -44 -60 0
1000 -45 -53 0
72 -46 -54 0
1000 -47 -55 0
1000 -48 -56 0
96 -49 -57 0
1000 -50 -58 0
62 -51 -59 0
78 -52 -60 0
